(set-info :Origin "This instance was generated by: BanditFuzz-- an RL fuzzer for SMT solvers" )
(set-info :Author "Joe Scott, Fed Mora, Vijay Ganesh" )
(set-info :Contact "Joe Scott, joseph.scott@uwaterloo.ca")
; solvers/z3.sh
; 	time => 0.19385242462158203
; 	answer => err
; solvers/bitwuzla.sh
; 	time => 0.16072773933410645
; 	answer => err
; solvers/cvc4.sh
; 	time => 0.15189909934997559
; 	answer => err
(set-logic QF_BV)
(declare-const bool_0 Bool)
(declare-const bool_1 Bool)
(declare-const bool_2 Bool)
(declare-const bool_3 Bool)
(declare-const bool_4 Bool)
(declare-const bv_0 (_ BitVec 8))
(declare-const bv_1 (_ BitVec 8))
(declare-const bv_2 (_ BitVec 8))
(declare-const bv_3 (_ BitVec 8))
(declare-const bv_4 (_ BitVec 8))
(assert (bvule (bvadd (bvmul #x00000078  #x000000df ) (bvsrem bv_0 #x00000078 )) (bvsrem (bvnand #x0000004a  #x000000d9 ) (bvurem bv_2 #x000000f8 ))))
(assert (bvslt (bvsrem (bvsdiv bv_1 #x00000019 ) (bvand #x00000093  #x0000000a )) (bvmul (bvsmod #x000000d9  bv_2) (bvnor #x00000093  #x0000009d ))))
(assert (bvsgt (bvnor (bvlshr bv_3 #x0000003c ) (bvashr #x00000099  #x0000000b )) (bvnand (bvxnor bv_4 #x00000047 ) (bvxnor #x0000003e  #x000000fb ))))
(assert (bvule (bvsdiv (bvurem bv_4 bv_0) (bvadd bv_1 bv_1)) (bvxor (bvashr bv_1 #x0000002a ) (bvurem #x0000004e  #x00000096 ))))
(assert (and (bvule (bvsmod #x000000ea  #x00000069 ) (bvand #x000000ab  #x000000c2 )) (and (bvuge bv_0 bv_3) (or bool_3 true))))
(check-sat)
(exit)
